W=6;
H=4;

MAX_TIME=9;
MAX_TRACKS=7;

TARGET=(4,6);

TRAINS=[(2,3,DOWN),(4,3,RIGHT)];
DECOYS=[];

INIT_POS=[
(2,3,STRAIGHT_TD),
(4,3,STRAIGHT_RL),
(4,6,STRAIGHT_RL),
];
TUNNEL_PAIRS=[
  (1, 5, DOWN, 3, 1, RIGHT),
];

GATES=[];
ACTIVATIONS=[];

DSWITCHES=[];

STATIONS=[];

SEMAPHORE_SUPPLY=0;
